449
964
249
1874
2045
584
936
1844
1052
282
73
275
2063
957
116
435
261
132
266
949
1932
1872
1268
2066
1270
732
1632
795
178
781
807
1817
1572
1197
1208
881
404
844
648
1475
107
834
188
882
146
338
657
901
372
1372
